proyfinal/src/viki/013/experimentInOfficeAgust.take6.output/2174fbde-7d20-47f3-a58b-8430817f2a39.als.dat
{'cnf.clauses': '118081',
 'cnf.totvars': '69608',
 'conflict literals': '89',
 'conflicts': '26',
 'decisions': '2561',
 'memused.mb': '15.53',
 'outcome': 'UNSAT',
 'propagations': '18892',
 'restarts': '1',
 'solver.msecs': 31,
 'task.msecs': 91}
