proyfinal/src/viki/013/experimentInOfficeAgust.take6.output/2174fbde-7d20-47f3-a58b-8430817f2a39.als.out
Reading from standard input... Use '--help' for help.
============================[ Problem Statistics ]=============================
|                                                                             |
|  Number of variables:         69608                                         |
|  Number of clauses:          118081                                         |
|  Parse time:                   0.02 s                                       |
|                                                                             |
============================[ Search Statistics ]==============================
| Conflicts |          ORIGINAL         |          LEARNT          | Progress |
|           |    Vars  Clauses Literals |    Limit  Clauses Lit/Cl |          |
===============================================================================
===============================================================================
restarts              : 1
conflicts             : 26             (835 /sec)
decisions             : 2561           (0.00 % random) (82199 /sec)
propagations          : 18892          (606368 /sec)
conflict literals     : 89             (0.00 % deleted)
Memory used           : 15.53 MB
CPU time              : 0.031156 s

UNSATISFIABLE
